c FILE: dubois20.cnf
c
c SOURCE: Olivier Dubois (dubois@laforia.ibp.fr)
c
c DESCRIPTION: Instance from generator gensathard.c
c
c NOTE: Not satisfiable
c
c d = 20
c n = 60
c p = 160
c r = 3
p cnf 60 160
 39  40   1  0
-39 -40   1  0
 39 -40  -1  0
-39  40  -1  0
  1  41   2  0
 -1 -41   2  0
  1 -41  -2  0
 -1  41  -2  0
  2  42   3  0
 -2 -42   3  0
  2 -42  -3  0
 -2  42  -3  0
  3  43   4  0
 -3 -43   4  0
  3 -43  -4  0
 -3  43  -4  0
  4  44   5  0
 -4 -44   5  0
  4 -44  -5  0
 -4  44  -5  0
  5  45   6  0
 -5 -45   6  0
  5 -45  -6  0
 -5  45  -6  0
  6  46   7  0
 -6 -46   7  0
  6 -46  -7  0
 -6  46  -7  0
  7  47   8  0
 -7 -47   8  0
  7 -47  -8  0
 -7  47  -8  0
  8  48   9  0
 -8 -48   9  0
  8 -48  -9  0
 -8  48  -9  0
  9  49  10  0
 -9 -49  10  0
  9 -49 -10  0
 -9  49 -10  0
 10  50  11  0
-10 -50  11  0
 10 -50 -11  0
-10  50 -11  0
 11  51  12  0
-11 -51  12  0
